jobs  (incl. supersource/sink ):	102
RESOURCES
- renewable                 : 2 R
- nonrenewable              : 2 N
- doubly constrained        : 0 D
************************************************************************
PRECEDENCE RELATIONS:
jobnr.    #modes  #successors   successors
1	1	32		2 3 4 5 6 7 8 9 10 11 12 13 14 15 16 17 18 19 20 21 24 26 28 29 30 32 33 34 37 41 42 45 
2	9	12		101 69 58 52 48 47 44 43 39 35 27 23 
3	9	13		101 90 69 68 62 60 57 54 52 47 46 35 22 
4	9	17		91 87 74 73 72 71 69 66 65 60 58 56 51 50 46 39 31 
5	9	24		100 97 96 95 93 92 91 90 89 86 84 75 74 71 70 69 67 65 64 62 59 57 55 47 
6	9	20		96 94 93 91 90 85 82 73 69 67 66 65 63 61 58 57 55 53 50 49 
7	9	15		99 93 91 88 74 69 66 64 63 61 60 57 56 50 36 
8	9	14		95 73 71 66 65 64 63 61 55 54 51 44 43 40 
9	9	15		97 95 94 93 91 89 72 71 70 65 63 58 56 44 36 
10	9	8		97 93 74 72 64 47 43 25 
11	9	17		101 100 97 95 94 90 89 85 72 69 67 65 58 56 55 52 43 
12	9	12		100 91 84 73 72 69 65 60 57 56 54 35 
13	9	17		100 98 97 96 95 93 92 91 90 89 86 84 81 71 69 67 38 
14	9	13		95 89 85 75 70 69 60 56 55 53 52 51 43 
15	9	17		100 96 92 90 85 84 83 80 74 73 72 71 68 55 54 51 50 
16	9	12		99 98 95 93 91 87 78 63 60 53 48 39 
17	9	19		101 98 95 94 93 92 90 88 86 85 81 78 73 71 70 66 65 63 54 
18	9	17		101 99 94 93 92 91 88 86 85 84 83 82 73 69 55 53 50 
19	9	15		97 93 90 88 87 84 82 81 80 74 73 72 61 46 44 
20	9	15		93 91 89 88 85 84 82 71 67 64 60 57 56 55 53 
21	9	15		99 94 93 91 90 89 88 86 84 82 69 67 56 55 53 
22	9	20		99 98 97 93 92 91 87 86 85 84 82 81 80 78 73 72 70 67 64 63 
23	9	8		99 95 91 89 88 64 63 36 
24	9	18		97 96 95 94 92 91 88 85 84 83 82 81 80 79 73 71 68 55 
25	9	7		99 95 94 75 73 69 36 
26	9	20		100 99 98 95 94 89 88 87 86 85 84 83 82 81 79 78 72 69 68 67 
27	9	12		97 95 94 93 90 88 84 80 78 74 59 46 
28	9	17		100 98 97 93 89 87 86 85 84 82 81 80 78 72 70 67 63 
29	9	13		97 92 87 86 84 82 81 80 78 72 68 65 46 
30	9	15		99 98 96 95 93 91 89 88 85 82 80 76 70 65 61 
31	9	13		99 98 95 93 89 86 85 84 82 70 68 64 57 
32	9	13		98 97 94 93 91 85 84 81 76 69 68 65 61 
33	9	11		100 98 96 87 85 84 83 82 78 69 50 
34	9	13		99 97 94 93 91 84 83 82 81 80 79 77 55 
35	9	11		96 94 88 86 85 82 81 78 71 67 50 
36	9	11		100 96 85 84 83 82 81 80 79 67 55 
37	9	9		91 85 84 82 74 72 71 69 50 
38	9	10		99 88 87 85 82 78 70 68 64 63 
39	9	12		96 92 89 88 85 84 83 82 81 79 76 67 
40	9	11		97 93 92 84 82 81 80 79 78 76 68 
41	9	6		99 90 82 80 78 51 
42	9	7		91 90 84 83 82 80 58 
43	9	9		99 88 87 86 81 80 78 76 68 
44	9	9		99 98 96 86 85 79 76 68 67 
45	9	8		100 96 89 88 82 77 76 70 
46	9	6		100 85 79 76 70 67 
47	9	6		99 87 81 80 78 63 
48	9	6		88 86 83 79 77 66 
49	9	6		100 88 86 83 72 71 
50	9	6		97 95 89 79 77 76 
51	9	6		97 88 86 81 77 76 
52	9	6		98 93 84 82 78 77 
53	9	5		100 97 81 76 68 
54	9	5		99 87 82 76 67 
55	9	4		98 87 78 76 
56	9	4		96 92 81 79 
57	9	4		81 80 78 77 
58	9	4		88 86 78 76 
59	9	3		85 81 68 
60	9	3		86 81 76 
61	9	3		86 79 78 
62	9	3		87 80 76 
63	9	2		79 76 
64	9	2		94 76 
65	9	2		83 77 
66	9	2		84 80 
67	9	1		77 
68	9	1		77 
69	9	1		80 
70	9	1		83 
71	9	1		76 
72	9	1		76 
73	9	1		89 
74	9	1		76 
75	9	1		82 
76	9	1		102 
77	9	1		102 
78	9	1		102 
79	9	1		102 
80	9	1		102 
81	9	1		102 
82	9	1		102 
83	9	1		102 
84	9	1		102 
85	9	1		102 
86	9	1		102 
87	9	1		102 
88	9	1		102 
89	9	1		102 
90	9	1		102 
91	9	1		102 
92	9	1		102 
93	9	1		102 
94	9	1		102 
95	9	1		102 
96	9	1		102 
97	9	1		102 
98	9	1		102 
99	9	1		102 
100	9	1		102 
101	9	1		102 
102	1	0		
************************************************************************
REQUESTS/DURATIONS
jobnr.	mode	dur	R1	R2	N1	N2	
------------------------------------------------------------------------
1	1	0	0	0	0	0	
2	1	1	3	5	23	24	
	2	2	3	4	22	20	
	3	9	3	4	22	17	
	4	18	3	4	21	16	
	5	19	3	4	21	12	
	6	20	2	3	21	9	
	7	21	2	3	21	6	
	8	22	2	3	20	6	
	9	29	2	3	20	3	
3	1	7	5	2	28	27	
	2	10	4	2	25	25	
	3	14	4	2	24	24	
	4	15	4	2	23	23	
	5	16	3	2	19	21	
	6	22	3	2	19	20	
	7	24	3	2	18	19	
	8	25	3	2	14	18	
	9	26	3	2	13	17	
4	1	5	3	5	11	25	
	2	6	2	4	9	23	
	3	7	2	4	7	23	
	4	13	2	4	7	21	
	5	18	2	4	6	20	
	6	20	1	4	4	19	
	7	23	1	4	3	18	
	8	27	1	4	3	17	
	9	30	1	4	1	17	
5	1	1	3	2	17	27	
	2	5	2	1	16	26	
	3	9	2	1	16	22	
	4	12	2	1	15	21	
	5	13	1	1	15	18	
	6	18	1	1	14	16	
	7	20	1	1	13	16	
	8	23	1	1	13	13	
	9	30	1	1	13	12	
6	1	3	5	1	29	5	
	2	5	4	1	29	4	
	3	6	4	1	27	4	
	4	7	3	1	26	4	
	5	14	3	1	26	3	
	6	20	3	1	25	2	
	7	21	2	1	24	2	
	8	24	2	1	23	2	
	9	29	2	1	23	1	
7	1	2	4	3	28	5	
	2	3	3	3	25	5	
	3	4	3	3	24	5	
	4	15	3	3	23	5	
	5	19	3	3	20	5	
	6	21	3	2	19	4	
	7	24	3	2	17	4	
	8	27	3	2	16	4	
	9	28	3	2	14	4	
8	1	10	4	2	27	6	
	2	14	4	2	27	5	
	3	15	4	2	27	4	
	4	19	4	2	27	3	
	5	21	3	2	26	5	
	6	26	3	2	26	4	
	7	28	3	2	26	3	
	8	29	3	2	26	2	
	9	30	3	2	26	1	
9	1	5	3	3	25	26	
	2	9	2	2	24	24	
	3	10	2	2	24	23	
	4	11	2	2	24	22	
	5	12	2	1	24	20	
	6	13	1	1	24	19	
	7	15	1	1	24	17	
	8	25	1	1	24	16	
	9	30	1	1	24	14	
10	1	6	3	3	27	9	
	2	10	3	3	26	9	
	3	13	3	3	25	9	
	4	18	3	3	25	8	
	5	19	3	3	23	9	
	6	22	3	3	23	8	
	7	23	3	3	23	7	
	8	24	3	3	22	9	
	9	29	3	3	21	9	
11	1	1	3	3	15	24	
	2	12	3	2	13	23	
	3	13	3	2	13	22	
	4	14	3	2	12	21	
	5	15	3	2	12	20	
	6	16	2	2	11	20	
	7	17	2	2	11	18	
	8	18	2	2	10	17	
	9	29	2	2	10	16	
12	1	1	5	4	26	28	
	2	11	4	3	25	28	
	3	12	3	3	23	28	
	4	15	3	3	22	28	
	5	16	2	2	22	28	
	6	17	2	2	20	28	
	7	24	1	2	20	28	
	8	29	1	2	19	28	
	9	30	1	2	17	28	
13	1	2	3	5	15	29	
	2	9	3	4	15	26	
	3	10	3	4	14	25	
	4	13	3	4	12	23	
	5	18	2	4	11	21	
	6	19	2	4	9	19	
	7	20	1	4	8	19	
	8	21	1	4	6	17	
	9	22	1	4	4	14	
14	1	1	5	5	24	25	
	2	7	4	4	22	23	
	3	15	4	4	22	19	
	4	17	4	4	21	16	
	5	20	4	4	19	13	
	6	22	3	4	18	12	
	7	24	3	4	17	8	
	8	26	3	4	17	6	
	9	28	3	4	16	4	
15	1	2	4	5	16	22	
	2	4	4	4	16	19	
	3	10	4	4	16	18	
	4	11	4	4	16	17	
	5	14	4	3	16	15	
	6	16	4	3	16	14	
	7	22	4	3	16	12	
	8	23	4	3	16	11	
	9	24	4	3	16	10	
16	1	6	1	5	8	10	
	2	9	1	4	7	9	
	3	11	1	4	6	7	
	4	14	1	4	6	6	
	5	16	1	3	5	6	
	6	17	1	3	4	5	
	7	18	1	3	4	4	
	8	27	1	3	3	2	
	9	28	1	3	2	2	
17	1	1	2	4	11	26	
	2	3	2	4	10	26	
	3	12	2	4	8	25	
	4	16	2	4	8	24	
	5	20	2	4	7	24	
	6	22	2	4	6	23	
	7	26	2	4	5	22	
	8	29	2	4	4	21	
	9	30	2	4	4	20	
18	1	1	2	5	28	29	
	2	2	1	4	28	28	
	3	3	1	4	28	27	
	4	4	1	4	28	26	
	5	5	1	4	28	25	
	6	20	1	4	27	27	
	7	21	1	4	27	26	
	8	22	1	4	27	25	
	9	26	1	4	27	24	
19	1	3	5	1	10	15	
	2	5	4	1	10	12	
	3	6	4	1	9	12	
	4	7	4	1	7	9	
	5	16	4	1	7	8	
	6	20	3	1	5	8	
	7	23	3	1	5	7	
	8	28	3	1	3	4	
	9	29	3	1	2	4	
20	1	6	3	4	23	27	
	2	7	3	3	20	27	
	3	10	3	3	17	27	
	4	15	3	3	16	26	
	5	16	3	3	15	25	
	6	20	3	2	11	25	
	7	21	3	2	10	25	
	8	24	3	2	7	24	
	9	25	3	2	6	24	
21	1	1	3	1	28	14	
	2	2	2	1	28	14	
	3	3	2	1	28	13	
	4	5	2	1	28	12	
	5	6	2	1	28	11	
	6	7	2	1	28	10	
	7	8	2	1	28	9	
	8	27	2	1	28	8	
	9	28	2	1	28	7	
22	1	1	4	4	8	20	
	2	2	3	4	7	18	
	3	3	3	4	7	16	
	4	9	3	4	7	13	
	5	21	3	3	5	11	
	6	22	2	3	5	9	
	7	23	2	3	5	7	
	8	26	2	3	3	5	
	9	28	2	3	3	4	
23	1	2	5	2	10	28	
	2	4	5	2	8	28	
	3	10	5	2	8	27	
	4	14	5	2	7	26	
	5	16	5	1	7	25	
	6	18	5	1	7	23	
	7	19	5	1	6	22	
	8	20	5	1	6	21	
	9	28	5	1	5	20	
24	1	1	5	5	26	21	
	2	3	4	4	25	20	
	3	5	4	4	24	18	
	4	6	4	4	24	16	
	5	15	4	4	23	14	
	6	18	4	3	22	10	
	7	23	4	3	22	9	
	8	26	4	3	21	7	
	9	29	4	3	21	4	
25	1	6	5	5	20	16	
	2	8	4	4	19	16	
	3	18	4	4	19	15	
	4	19	3	4	19	14	
	5	20	2	3	18	13	
	6	21	2	3	17	13	
	7	22	2	3	17	12	
	8	23	1	2	15	11	
	9	28	1	2	15	10	
26	1	11	4	2	23	27	
	2	14	3	2	21	27	
	3	15	3	2	20	26	
	4	21	3	2	20	25	
	5	22	3	1	16	24	
	6	23	3	1	15	24	
	7	24	3	1	14	24	
	8	25	3	1	13	22	
	9	30	3	1	10	22	
27	1	1	5	5	15	10	
	2	7	5	4	13	9	
	3	10	5	4	11	8	
	4	11	5	4	11	6	
	5	14	5	4	9	5	
	6	20	5	4	8	5	
	7	22	5	4	7	3	
	8	23	5	4	6	3	
	9	27	5	4	5	2	
28	1	2	3	2	22	27	
	2	4	2	2	20	26	
	3	6	2	2	19	24	
	4	11	2	2	19	21	
	5	12	2	2	16	20	
	6	13	2	2	15	19	
	7	20	2	2	12	16	
	8	23	2	2	12	14	
	9	29	2	2	9	12	
29	1	1	1	2	12	15	
	2	4	1	2	11	14	
	3	8	1	2	9	14	
	4	9	1	2	9	13	
	5	12	1	2	8	13	
	6	14	1	2	7	12	
	7	21	1	2	6	12	
	8	25	1	2	4	11	
	9	26	1	2	3	11	
30	1	1	1	3	10	23	
	2	2	1	3	8	22	
	3	6	1	3	7	22	
	4	7	1	3	7	21	
	5	10	1	2	6	22	
	6	11	1	2	6	21	
	7	16	1	2	5	22	
	8	18	1	2	3	22	
	9	30	1	2	3	21	
31	1	10	2	2	29	30	
	2	11	2	1	27	27	
	3	18	2	1	25	26	
	4	22	2	1	25	24	
	5	24	2	1	23	22	
	6	25	2	1	21	18	
	7	26	2	1	19	18	
	8	27	2	1	18	16	
	9	30	2	1	17	14	
32	1	1	4	4	28	22	
	2	2	4	3	27	20	
	3	4	4	3	27	19	
	4	8	4	3	27	16	
	5	11	4	3	26	15	
	6	18	3	3	26	14	
	7	26	3	3	25	13	
	8	27	3	3	25	11	
	9	30	3	3	25	10	
33	1	1	4	5	25	24	
	2	3	3	4	22	24	
	3	9	3	4	20	20	
	4	13	3	4	18	17	
	5	16	3	3	15	14	
	6	17	2	3	14	14	
	7	21	2	3	11	11	
	8	27	2	2	9	9	
	9	30	2	2	6	7	
34	1	1	2	4	22	11	
	2	4	1	4	20	10	
	3	5	1	3	17	10	
	4	7	1	3	16	9	
	5	8	1	2	12	6	
	6	9	1	2	11	6	
	7	10	1	2	9	5	
	8	20	1	1	7	3	
	9	29	1	1	6	3	
35	1	4	4	4	15	17	
	2	6	4	4	15	16	
	3	13	4	4	13	14	
	4	14	3	3	12	12	
	5	15	3	3	11	11	
	6	19	3	2	10	10	
	7	20	2	2	10	7	
	8	21	2	1	8	6	
	9	27	2	1	8	4	
36	1	2	4	4	22	18	
	2	4	3	4	21	18	
	3	18	3	4	21	16	
	4	20	3	3	20	16	
	5	23	3	3	20	14	
	6	24	2	3	20	14	
	7	26	2	3	19	12	
	8	27	2	2	19	12	
	9	28	2	2	19	10	
37	1	3	3	5	27	14	
	2	4	2	4	24	11	
	3	17	2	4	22	9	
	4	19	2	4	21	9	
	5	20	2	4	19	6	
	6	21	1	4	18	5	
	7	24	1	4	16	3	
	8	26	1	4	13	2	
	9	27	1	4	13	1	
38	1	12	3	4	15	13	
	2	13	3	3	15	13	
	3	14	3	3	13	13	
	4	15	3	3	12	12	
	5	18	3	3	11	12	
	6	19	3	3	11	11	
	7	20	3	3	9	11	
	8	28	3	3	9	10	
	9	29	3	3	8	11	
39	1	8	5	4	26	15	
	2	9	4	4	25	15	
	3	13	3	4	23	13	
	4	16	3	3	18	13	
	5	20	2	2	18	12	
	6	22	2	2	16	12	
	7	24	1	1	12	10	
	8	26	1	1	11	10	
	9	27	1	1	8	9	
40	1	1	4	1	23	30	
	2	2	4	1	21	28	
	3	4	3	1	21	27	
	4	7	3	1	20	25	
	5	8	3	1	17	24	
	6	11	2	1	17	22	
	7	16	1	1	16	21	
	8	20	1	1	15	19	
	9	26	1	1	14	18	
41	1	1	4	5	13	7	
	2	3	4	5	12	7	
	3	6	4	5	12	6	
	4	10	4	5	11	7	
	5	11	4	5	10	6	
	6	24	4	5	10	5	
	7	27	4	5	9	6	
	8	28	4	5	9	5	
	9	29	4	5	9	4	
42	1	9	5	3	11	5	
	2	11	4	2	11	5	
	3	16	4	2	10	5	
	4	19	4	2	9	5	
	5	21	3	2	8	5	
	6	22	3	1	8	5	
	7	23	3	1	7	5	
	8	24	3	1	7	4	
	9	28	3	1	6	5	
43	1	2	1	3	29	29	
	2	5	1	3	24	27	
	3	14	1	3	22	26	
	4	15	1	2	17	23	
	5	17	1	2	14	22	
	6	18	1	2	13	21	
	7	19	1	1	10	21	
	8	20	1	1	6	19	
	9	21	1	1	4	18	
44	1	1	4	4	4	13	
	2	5	4	4	3	13	
	3	10	4	4	3	12	
	4	11	4	4	3	11	
	5	16	3	4	3	10	
	6	24	3	4	3	9	
	7	26	3	4	3	8	
	8	27	3	4	3	7	
	9	29	3	4	3	6	
45	1	2	1	5	22	21	
	2	4	1	4	22	17	
	3	9	1	4	22	16	
	4	12	1	4	22	15	
	5	16	1	4	21	13	
	6	17	1	4	21	12	
	7	18	1	4	20	10	
	8	21	1	4	20	7	
	9	27	1	4	20	6	
46	1	3	3	4	23	8	
	2	4	2	4	23	8	
	3	6	2	4	22	8	
	4	8	2	4	20	7	
	5	9	2	4	20	6	
	6	17	2	4	18	6	
	7	21	2	4	17	6	
	8	27	2	4	16	5	
	9	28	2	4	16	4	
47	1	3	4	4	30	23	
	2	8	4	4	24	22	
	3	10	4	4	22	21	
	4	11	4	4	19	21	
	5	20	4	4	18	21	
	6	22	4	3	17	20	
	7	23	4	3	12	20	
	8	24	4	3	12	19	
	9	25	4	3	7	19	
48	1	2	2	4	23	21	
	2	3	1	4	18	20	
	3	4	1	4	17	20	
	4	12	1	3	15	19	
	5	22	1	2	11	18	
	6	23	1	2	8	18	
	7	24	1	1	7	18	
	8	26	1	1	3	17	
	9	30	1	1	1	17	
49	1	1	2	1	7	26	
	2	5	1	1	7	22	
	3	8	1	1	7	21	
	4	9	1	1	6	16	
	5	13	1	1	5	14	
	6	17	1	1	5	10	
	7	18	1	1	5	7	
	8	23	1	1	4	5	
	9	25	1	1	4	3	
50	1	3	4	4	29	29	
	2	5	4	4	28	27	
	3	7	4	4	28	23	
	4	9	4	3	26	22	
	5	13	4	3	25	21	
	6	16	4	3	24	17	
	7	17	4	3	23	17	
	8	27	4	2	23	14	
	9	28	4	2	22	11	
51	1	4	1	3	19	29	
	2	6	1	2	19	25	
	3	8	1	2	17	20	
	4	15	1	2	17	19	
	5	16	1	1	16	15	
	6	17	1	1	15	12	
	7	23	1	1	15	11	
	8	25	1	1	13	7	
	9	29	1	1	13	5	
52	1	4	5	1	19	29	
	2	8	5	1	18	26	
	3	12	5	1	18	23	
	4	18	5	1	17	21	
	5	21	5	1	16	18	
	6	23	5	1	13	16	
	7	26	5	1	13	14	
	8	28	5	1	12	11	
	9	29	5	1	10	7	
53	1	2	2	4	17	9	
	2	8	1	4	16	8	
	3	11	1	4	13	7	
	4	12	1	4	11	6	
	5	13	1	4	10	6	
	6	17	1	4	9	5	
	7	19	1	4	8	4	
	8	25	1	4	6	4	
	9	29	1	4	4	3	
54	1	4	3	5	26	24	
	2	6	3	4	26	23	
	3	9	3	4	23	23	
	4	14	3	4	22	23	
	5	15	3	4	20	23	
	6	24	3	4	19	22	
	7	26	3	4	19	21	
	8	26	3	4	16	23	
	9	27	3	4	16	22	
55	1	9	3	2	23	21	
	2	16	2	2	23	20	
	3	19	2	2	23	19	
	4	23	2	2	23	18	
	5	24	2	2	23	17	
	6	27	1	1	23	17	
	7	28	1	1	23	15	
	8	29	1	1	23	14	
	9	30	1	1	23	13	
56	1	3	5	4	30	18	
	2	4	5	4	28	15	
	3	7	5	3	26	15	
	4	8	5	3	26	12	
	5	11	5	2	23	11	
	6	18	5	2	22	8	
	7	20	5	1	21	7	
	8	25	5	1	21	3	
	9	29	5	1	20	1	
57	1	1	2	3	9	20	
	2	6	2	3	8	19	
	3	9	2	3	8	16	
	4	12	2	3	6	15	
	5	17	2	3	6	12	
	6	20	2	3	5	12	
	7	21	2	3	5	10	
	8	26	2	3	4	6	
	9	27	2	3	3	5	
58	1	1	4	4	27	11	
	2	2	3	3	24	9	
	3	4	3	3	21	9	
	4	8	3	3	20	7	
	5	11	3	2	17	6	
	6	12	3	2	13	5	
	7	13	3	2	13	4	
	8	14	3	2	11	4	
	9	21	3	2	8	2	
59	1	1	2	4	24	27	
	2	3	2	3	23	24	
	3	5	2	3	23	21	
	4	17	2	3	22	16	
	5	22	2	3	21	14	
	6	23	1	3	20	12	
	7	24	1	3	19	10	
	8	25	1	3	18	8	
	9	26	1	3	16	5	
60	1	3	5	4	26	11	
	2	9	4	4	24	10	
	3	10	4	4	24	9	
	4	13	4	3	24	10	
	5	19	4	3	23	10	
	6	21	4	3	22	9	
	7	22	4	3	21	9	
	8	23	4	2	21	9	
	9	24	4	2	20	9	
61	1	1	2	5	29	11	
	2	3	1	4	29	10	
	3	5	1	4	28	8	
	4	13	1	4	26	8	
	5	15	1	4	26	7	
	6	20	1	4	25	7	
	7	21	1	4	24	5	
	8	24	1	4	23	5	
	9	30	1	4	23	4	
62	1	3	2	4	28	20	
	2	8	2	4	28	19	
	3	10	2	4	27	18	
	4	12	2	4	25	13	
	5	17	2	4	24	13	
	6	18	2	3	23	9	
	7	20	2	3	22	8	
	8	29	2	3	20	6	
	9	30	2	3	19	4	
63	1	2	3	4	25	16	
	2	7	2	3	21	16	
	3	9	2	3	19	16	
	4	17	2	3	19	15	
	5	18	1	3	15	15	
	6	19	1	3	13	15	
	7	20	1	3	11	15	
	8	23	1	3	9	15	
	9	26	1	3	8	15	
64	1	3	4	2	14	24	
	2	10	4	2	14	23	
	3	18	4	2	13	22	
	4	20	4	2	13	21	
	5	22	4	2	12	20	
	6	23	4	2	11	20	
	7	24	4	2	11	19	
	8	28	4	2	9	19	
	9	29	4	2	9	18	
65	1	4	2	2	21	27	
	2	13	2	1	21	25	
	3	14	2	1	18	22	
	4	15	2	1	16	19	
	5	17	2	1	16	18	
	6	21	2	1	14	18	
	7	24	2	1	12	14	
	8	26	2	1	10	13	
	9	27	2	1	9	12	
66	1	1	4	4	23	20	
	2	3	4	4	22	19	
	3	4	4	3	21	19	
	4	5	4	3	20	19	
	5	7	3	3	20	17	
	6	10	3	2	19	17	
	7	15	3	2	19	16	
	8	29	2	1	19	16	
	9	30	2	1	18	15	
67	1	1	4	3	18	20	
	2	2	4	3	18	17	
	3	3	3	3	17	17	
	4	5	3	3	16	15	
	5	12	2	3	15	11	
	6	19	2	3	15	9	
	7	22	1	3	15	9	
	8	29	1	3	13	7	
	9	30	1	3	13	5	
68	1	2	1	3	27	11	
	2	3	1	2	25	10	
	3	4	1	2	21	10	
	4	6	1	2	18	10	
	5	11	1	2	16	9	
	6	13	1	1	15	9	
	7	15	1	1	14	9	
	8	26	1	1	11	8	
	9	27	1	1	8	8	
69	1	3	4	5	18	14	
	2	5	3	4	17	13	
	3	11	3	4	16	12	
	4	12	3	4	15	10	
	5	15	3	4	14	9	
	6	19	3	4	13	9	
	7	20	3	4	12	8	
	8	24	3	4	12	6	
	9	30	3	4	11	6	
70	1	12	5	3	15	30	
	2	13	5	3	14	28	
	3	17	5	3	14	26	
	4	18	5	3	14	24	
	5	19	5	3	13	24	
	6	23	5	3	13	23	
	7	24	5	3	12	21	
	8	26	5	3	12	19	
	9	30	5	3	12	18	
71	1	19	3	1	24	27	
	2	20	2	1	22	24	
	3	23	2	1	21	23	
	4	24	2	1	20	21	
	5	25	2	1	19	18	
	6	26	1	1	18	17	
	7	27	1	1	18	14	
	8	28	1	1	16	11	
	9	30	1	1	15	8	
72	1	4	3	3	19	30	
	2	11	3	3	17	29	
	3	13	3	3	13	27	
	4	16	3	3	13	26	
	5	21	2	3	10	26	
	6	22	2	3	8	26	
	7	27	2	3	6	24	
	8	29	2	3	4	23	
	9	30	2	3	2	23	
73	1	2	3	3	21	25	
	2	3	3	3	21	23	
	3	5	3	3	21	20	
	4	6	3	3	21	17	
	5	7	2	3	21	15	
	6	12	2	3	21	14	
	7	14	2	3	21	13	
	8	18	1	3	21	11	
	9	19	1	3	21	7	
74	1	2	3	2	22	27	
	2	3	2	2	21	25	
	3	4	2	2	21	24	
	4	10	2	2	20	24	
	5	15	2	2	20	22	
	6	19	2	2	20	21	
	7	23	2	2	19	21	
	8	24	2	2	19	20	
	9	27	2	2	19	19	
75	1	1	4	2	22	17	
	2	2	4	1	21	16	
	3	5	4	1	21	15	
	4	7	4	1	21	14	
	5	14	3	1	20	15	
	6	16	3	1	20	14	
	7	26	3	1	20	13	
	8	28	3	1	20	12	
	9	29	3	1	20	11	
76	1	1	2	3	9	25	
	2	6	2	3	8	24	
	3	7	2	3	8	22	
	4	9	2	3	7	20	
	5	10	2	3	6	18	
	6	17	2	3	6	14	
	7	18	2	3	4	12	
	8	28	2	3	3	12	
	9	30	2	3	3	10	
77	1	1	1	4	24	28	
	2	6	1	3	24	28	
	3	17	1	3	21	26	
	4	20	1	3	17	23	
	5	22	1	2	14	22	
	6	23	1	2	10	20	
	7	24	1	1	9	18	
	8	25	1	1	4	16	
	9	29	1	1	2	15	
78	1	5	1	4	25	20	
	2	8	1	3	25	18	
	3	9	1	3	19	15	
	4	11	1	3	19	14	
	5	15	1	2	15	13	
	6	16	1	2	14	10	
	7	21	1	2	10	9	
	8	22	1	2	5	6	
	9	25	1	2	4	5	
79	1	1	4	5	28	25	
	2	4	3	4	27	21	
	3	7	3	4	27	20	
	4	8	3	4	27	17	
	5	9	3	4	27	16	
	6	14	2	3	26	13	
	7	15	2	3	26	12	
	8	19	2	3	26	10	
	9	21	2	3	26	9	
80	1	11	2	3	15	10	
	2	12	2	3	12	10	
	3	15	2	3	11	8	
	4	16	2	3	10	7	
	5	17	2	3	7	6	
	6	18	2	3	6	6	
	7	24	2	3	5	5	
	8	25	2	3	4	3	
	9	27	2	3	2	3	
81	1	1	5	4	24	22	
	2	12	5	4	21	21	
	3	14	5	4	21	20	
	4	16	5	4	16	19	
	5	19	5	4	16	18	
	6	20	5	4	12	16	
	7	24	5	4	12	15	
	8	27	5	4	8	15	
	9	28	5	4	6	13	
82	1	6	2	3	13	11	
	2	10	1	3	11	11	
	3	13	1	3	11	10	
	4	16	1	3	9	8	
	5	20	1	3	9	6	
	6	22	1	3	8	5	
	7	23	1	3	8	4	
	8	24	1	3	6	3	
	9	25	1	3	6	2	
83	1	1	4	4	28	30	
	2	2	4	4	27	28	
	3	6	4	4	27	26	
	4	11	4	4	26	24	
	5	13	3	3	25	22	
	6	14	3	3	25	18	
	7	15	2	3	24	17	
	8	25	2	2	24	15	
	9	26	2	2	23	13	
84	1	1	5	4	8	14	
	2	2	4	3	8	13	
	3	4	4	3	8	12	
	4	13	4	3	8	11	
	5	14	4	3	8	10	
	6	21	4	2	8	9	
	7	23	4	2	8	8	
	8	28	4	2	8	7	
	9	29	4	2	8	6	
85	1	2	3	5	25	17	
	2	4	3	4	24	16	
	3	13	3	4	24	15	
	4	15	3	4	24	14	
	5	16	3	4	23	13	
	6	17	3	3	23	12	
	7	20	3	3	23	10	
	8	25	3	3	22	10	
	9	26	3	3	22	8	
86	1	6	4	3	7	17	
	2	10	4	3	6	17	
	3	12	4	3	6	16	
	4	20	4	3	4	16	
	5	22	3	3	4	16	
	6	24	3	2	4	16	
	7	25	3	2	2	15	
	8	26	3	2	1	15	
	9	29	3	2	1	14	
87	1	4	2	3	24	23	
	2	5	1	3	23	21	
	3	6	1	3	22	18	
	4	8	1	2	22	18	
	5	11	1	2	20	15	
	6	12	1	2	19	12	
	7	13	1	1	18	10	
	8	21	1	1	17	8	
	9	30	1	1	17	7	
88	1	9	3	5	19	28	
	2	10	3	4	18	28	
	3	11	3	4	15	28	
	4	15	3	4	14	28	
	5	16	3	3	10	28	
	6	18	3	3	9	28	
	7	19	3	2	6	28	
	8	21	3	2	4	28	
	9	30	3	2	3	28	
89	1	5	2	4	23	29	
	2	8	2	4	21	27	
	3	18	2	4	21	23	
	4	19	2	4	17	23	
	5	20	2	4	16	19	
	6	21	2	4	14	17	
	7	24	2	4	12	16	
	8	25	2	4	10	13	
	9	27	2	4	8	10	
90	1	2	3	5	30	27	
	2	6	2	5	28	26	
	3	7	2	5	27	26	
	4	9	2	5	25	26	
	5	10	2	5	22	24	
	6	15	2	5	22	23	
	7	16	2	5	20	24	
	8	18	2	5	18	23	
	9	23	2	5	17	22	
91	1	3	4	4	23	19	
	2	8	4	4	23	18	
	3	12	4	4	23	17	
	4	13	4	3	22	17	
	5	15	4	3	22	16	
	6	16	4	2	22	15	
	7	26	4	1	21	14	
	8	28	4	1	21	12	
	9	29	4	1	21	11	
92	1	3	4	1	25	22	
	2	6	4	1	24	21	
	3	8	4	1	21	21	
	4	9	4	1	21	20	
	5	16	3	1	18	19	
	6	17	3	1	17	18	
	7	18	3	1	13	19	
	8	19	3	1	13	18	
	9	30	3	1	9	17	
93	1	9	3	3	26	23	
	2	10	3	3	23	22	
	3	13	3	3	23	21	
	4	20	3	3	21	22	
	5	23	3	3	17	22	
	6	25	2	3	16	22	
	7	26	2	3	12	22	
	8	28	2	3	10	22	
	9	29	2	3	8	22	
94	1	7	2	4	18	19	
	2	8	2	4	17	18	
	3	9	2	4	16	16	
	4	12	2	3	15	16	
	5	19	2	2	15	15	
	6	20	2	2	14	15	
	7	21	2	2	14	13	
	8	23	2	1	12	12	
	9	25	2	1	12	11	
95	1	10	5	5	26	22	
	2	11	4	4	25	21	
	3	12	4	4	24	19	
	4	13	4	4	23	18	
	5	14	3	3	22	18	
	6	20	3	3	20	15	
	7	22	3	3	19	13	
	8	23	2	3	18	13	
	9	29	2	3	17	12	
96	1	5	4	3	17	17	
	2	7	4	2	15	17	
	3	10	3	2	14	17	
	4	13	3	2	14	16	
	5	14	2	2	12	17	
	6	20	2	2	12	16	
	7	24	1	2	10	17	
	8	25	1	2	9	17	
	9	30	1	2	9	16	
97	1	2	4	3	14	24	
	2	14	4	3	13	24	
	3	16	4	3	13	23	
	4	18	4	3	12	23	
	5	19	4	3	11	23	
	6	24	4	3	11	22	
	7	26	4	3	11	21	
	8	28	4	3	10	21	
	9	29	4	3	10	20	
98	1	1	5	4	24	21	
	2	2	4	4	24	20	
	3	3	4	4	24	18	
	4	6	4	4	24	17	
	5	15	4	3	23	16	
	6	17	4	3	23	15	
	7	18	4	3	23	14	
	8	27	4	3	23	13	
	9	30	4	3	23	12	
99	1	1	4	5	20	22	
	2	4	4	5	19	20	
	3	8	4	5	18	19	
	4	9	4	5	17	18	
	5	18	4	5	15	17	
	6	24	4	5	14	15	
	7	25	4	5	14	14	
	8	28	4	5	12	12	
	9	29	4	5	12	11	
100	1	4	2	4	1	25	
	2	5	2	4	1	24	
	3	6	2	4	1	23	
	4	8	2	4	1	21	
	5	9	2	4	1	20	
	6	18	2	4	1	19	
	7	21	2	4	1	18	
	8	23	2	4	1	17	
	9	26	2	4	1	16	
101	1	3	4	3	28	29	
	2	4	4	3	28	27	
	3	6	4	3	25	23	
	4	8	4	3	25	22	
	5	12	3	3	23	19	
	6	13	3	3	21	18	
	7	18	3	3	20	15	
	8	19	2	3	19	15	
	9	29	2	3	17	13	
102	1	0	0	0	0	0	
************************************************************************

 RESOURCE AVAILABILITIES 
	R 1	R 2	N 1	N 2
	30	32	1417	1352

************************************************************************
